(benchmark test.smt
:logic QF_UFLIA
:extrafuns
((a1 Int) (a2 Int) (a3 Int) (a4 Int) (a5 Int) (a6 Int) (a7 Int) (a8 Int)
(b1 Int) (b2 Int) (b3 Int) (b4 Int) (b5 Int) (b6 Int) (b7 Int) (b8 Int)
(c1 Int) (c2 Int) (c3 Int) (c4 Int) (c5 Int) (c6 Int) (c7 Int) (c8 Int)
(d1 Int) (d2 Int) (d3 Int) (d4 Int) (d5 Int) (d6 Int) (d7 Int) (d8 Int)
(e1 Int) (e2 Int) (e3 Int) (e4 Int) (e5 Int) (e6 Int) (e7 Int) (e8 Int)
)
:formula
( and 
(<= (+ (* 800 a1) (* 1100 b1) (* 1000 c1) (* 2500 d1) (* 200 e1)) 8000)
(<= (+ (* 800 a2) (* 1100 b2) (* 1000 c2) (* 2500 d2) (* 200 e2)) 8000)
(<= (+ (* 800 a3) (* 1100 b3) (* 1000 c3) (* 2500 d3) (* 200 e3)) 8000)
(<= (+ (* 800 a4) (* 1100 b4) (* 1000 c4) (* 2500 d4) (* 200 e4)) 8000)
(<= (+ (* 800 a5) (* 1100 b5) (* 1000 c5) (* 2500 d5) (* 200 e5)) 8000)
(<= (+ (* 800 a6) (* 1100 b6) (* 1000 c6) (* 2500 d6) (* 200 e6)) 8000)
(<= (+ (* 800 a7) (* 1100 b7) (* 1000 c7) (* 2500 d7) (* 200 e7)) 8000)
(<= (+ (* 800 a8) (* 1100 b8) (* 1000 c8) (* 2500 d8) (* 200 e8)) 8000)
(<= (+ a1 b1 c1 d1 e1) 8)
(<= (+ a2 b2 c2 d2 e2) 8)
(<= (+ a3 b3 c3 d3 e3) 8)
(<= (+ a4 b4 c4 d4 e4) 8)
(<= (+ a5 b5 c5 d5 e5) 8)
(<= (+ a6 b6 c6 d6 e6) 8)
(<= (+ a7 b7 c7 d7 e7) 8)
(<= (+ a8 b8 c8 d8 e8) 8)
(= (+ a1 a2 a3 a4 a5 a6 a7 a8) 4)
;main!!!!
(= (+ b1 b2 b3 b4 b5 b6 b7 b8) 19)
(= (+ c1 c2 c3 c4 c5 c6 c7 c8) 8)
(= (+ d1 d2 d3 d4 d5 d6 d7 d8) 10)
(= (+ e1 e2 e3 e4 e5 e6 e7 e8) 20)
(>= a1 0)
(>= a2 0)
(>= a3 0)
(>= a4 0)
(>= a5 0)
(>= a6 0)
(>= a7 0)
(>= a8 0)
(>= b1 0)
(>= b2 0)
(>= b3 0)
(>= b4 0)
(>= b5 0)
(>= b6 0)
(>= b7 0)
(>= b8 0)
(>= c1 0)
(>= c2 0)
(>= c3 0)
(>= c4 0)
(>= c5 0)
(>= c6 0)
(>= c7 0)
(>= c8 0)
(>= d1 0)
(>= d2 0)
(>= d3 0)
(>= d4 0)
(>= d5 0)
(>= d6 0)
(>= d7 0)
(>= d8 0)
(>= e1 0)
(>= e2 0)
(>= e3 0)
(>= e4 0)
(>= e5 0)
(>= e6 0)
(>= e7 0)
(>= e8 0)
;only three of the eight trucks have facility for cooling skipples, assume t1 2 3
(= c4 0)
(= c5 0)
(= c6 0)
(= c7 0)
(= c8 0)
;no two pallets of nuzzles may be in the same truck
(<= a1 1)
(<= a2 1)
(<= a3 1)
(<= a4 1)
(<= a5 1)
(<= a6 1)
(<= a7 1)
(<= a8 1)
;prittles and crottles are an explosive combination: they are not allowed to be put in the same truck.
(or (= b1 0) (= d1 0)); (and (= b1 0) (= b4 0))
(or (= b2 0) (= d2 0)); (and (= b1 0) (= b4 0))
(or (= b3 0) (= d3 0)); (and (= b1 0) (= b4 0))
(or (= b4 0) (= d4 0)); (and (= b1 0) (= b4 0))
(or (= b5 0) (= d5 0)); (and (= b1 0) (= b4 0))
(or (= b6 0) (= d6 0)); (and (= b1 0) (= b4 0))
(or (= b7 0) (= d7 0)); (and (= b1 0) (= b4 0))
(or (= b8 0) (= d8 0)); (and (= b1 0) (= b4 0)))
)


)